words_hard_train/1666.qaiger
aag 83 16 0 1 67
2
4
10
14
22
24
28
32
36
40
50
58
108
122
140
144
167
6 2 5
8 7 5
12 8 11
16 12 15
18 13 14
20 17 19
26 23 25
30 26 29
34 30 33
38 34 37
42 39 40
44 38 41
46 43 45
48 21 47
52 19 51
54 18 50
56 53 55
60 45 58
62 44 59
64 61 63
66 57 65
68 49 67
70 9 10
72 71 13
74 35 36
76 75 39
78 73 76
80 20 46
82 79 81
84 3 4
86 85 7
88 31 32
90 89 35
92 87 91
94 72 77
96 93 95
98 27 28
100 99 31
102 100 3
104 86 90
106 103 105
110 109 24
112 111 27
114 101 2
116 112 115
118 108 25
120 119 22
124 120 123
126 116 125
128 106 127
130 96 129
132 82 131
134 68 133
136 56 64
138 135 137
142 138 141
146 54 145
148 55 144
150 147 149
152 150 62
154 142 153
156 139 140
158 152 156
160 155 159
162 151 63
164 162 157
166 160 165
i0 1 x1[5]
i1 1 x1[4]
i2 1 x1[3]
i3 1 x1[2]
i4 2 y1[0]
i5 2 y1[1]
i6 2 y1[2]
i7 2 y1[3]
i8 2 y1[4]
i9 2 y1[5]
i10 1 x1[1]
i11 2 y1[6]
i12 1 x1[6]
i13 1 x1[7]
i14 2 y1[7]
i15 1 x1[0]
o0 bv[0]
c
simplified
  >
    2 y1
    add
      reverse
        1 x1
      subtract
        1
        -27
