words_hard_train/1666.qaiger.qdimacs
p cnf 83 202
a 1 2 5 7 72 54 25 61 0
e 3 4 6 8 9 10 11 12 13 14 15 16 17 18 19 20 21 22 23 24 26 27 28 29 30 31 32 33 34 35 36 37 38 39 40 41 42 43 44 45 46 47 48 49 50 51 52 53 55 56 57 58 59 60 62 63 64 65 66 67 68 69 70 71 73 74 75 76 77 78 79 80 81 82 83 0
-1 2 3 0
1 -3 0
-2 -3 0
3 2 4 0
-3 -4 0
-2 -4 0
-4 5 6 0
4 -6 0
-5 -6 0
-6 7 8 0
6 -8 0
-7 -8 0
6 -7 9 0
-6 -9 0
7 -9 0
8 9 10 0
-8 -10 0
-9 -10 0
11 12 13 0
-11 -13 0
-12 -13 0
-13 14 15 0
13 -15 0
-14 -15 0
-15 16 17 0
15 -17 0
-16 -17 0
-17 18 19 0
17 -19 0
-18 -19 0
19 -20 21 0
-19 -21 0
20 -21 0
-19 20 22 0
19 -22 0
-20 -22 0
21 22 23 0
-21 -23 0
-22 -23 0
10 23 24 0
-10 -24 0
-23 -24 0
9 25 26 0
-9 -26 0
-25 -26 0
-9 -25 27 0
9 -27 0
25 -27 0
26 27 28 0
-26 -28 0
-27 -28 0
22 -29 30 0
-22 -30 0
29 -30 0
-22 29 31 0
22 -31 0
-29 -31 0
30 31 32 0
-30 -32 0
-31 -32 0
28 32 33 0
-28 -33 0
-32 -33 0
24 33 34 0
-24 -34 0
-33 -34 0
4 -5 35 0
-4 -35 0
5 -35 0
35 6 36 0
-35 -36 0
-6 -36 0
17 -18 37 0
-17 -37 0
18 -37 0
37 19 38 0
-37 -38 0
-19 -38 0
36 -38 39 0
-36 -39 0
38 -39 0
-10 -23 40 0
10 -40 0
23 -40 0
39 40 41 0
-39 -41 0
-40 -41 0
1 -2 42 0
-1 -42 0
2 -42 0
42 3 43 0
-42 -43 0
-3 -43 0
15 -16 44 0
-15 -44 0
16 -44 0
44 17 45 0
-44 -45 0
-17 -45 0
43 45 46 0
-43 -46 0
-45 -46 0
-36 38 47 0
36 -47 0
-38 -47 0
46 47 48 0
-46 -48 0
-47 -48 0
13 -14 49 0
-13 -49 0
14 -49 0
49 15 50 0
-49 -50 0
-15 -50 0
-50 1 51 0
50 -51 0
-1 -51 0
-43 -45 52 0
43 -52 0
45 -52 0
51 52 53 0
-51 -53 0
-52 -53 0
54 -12 55 0
-54 -55 0
12 -55 0
55 13 56 0
-55 -56 0
-13 -56 0
50 -1 57 0
-50 -57 0
1 -57 0
-56 57 58 0
56 -58 0
-57 -58 0
-54 12 59 0
54 -59 0
-12 -59 0
59 -11 60 0
-59 -60 0
11 -60 0
-60 61 62 0
60 -62 0
-61 -62 0
-58 62 63 0
58 -63 0
-62 -63 0
-53 63 64 0
53 -64 0
-63 -64 0
-48 64 65 0
48 -65 0
-64 -65 0
-41 65 66 0
41 -66 0
-65 -66 0
-34 66 67 0
34 -67 0
-66 -67 0
-28 -32 68 0
28 -68 0
32 -68 0
67 68 69 0
-67 -69 0
-68 -69 0
-69 70 71 0
69 -71 0
-70 -71 0
-27 72 73 0
27 -73 0
-72 -73 0
27 -72 74 0
-27 -74 0
72 -74 0
73 74 75 0
-73 -75 0
-74 -75 0
-75 -31 76 0
75 -76 0
31 -76 0
-71 76 77 0
71 -77 0
-76 -77 0
69 -70 78 0
-69 -78 0
70 -78 0
-76 -78 79 0
76 -79 0
78 -79 0
77 79 80 0
-77 -80 0
-79 -80 0
75 31 81 0
-75 -81 0
-31 -81 0
-81 78 82 0
81 -82 0
-78 -82 0
-80 82 83 0
80 -83 0
-82 -83 0
-83 0
